p wcnf 117 58 59 
1 -49 17 0 
1 -97 -44 0 
1 2 37 0 
1 85 57 0 
1 -105 4 0 
1 23 -9 0 
1 74 -36 0 
1 30 -86 0 
1 -62 -11 0 
1 58 -1 0 
1 -44 -34 0 
1 -28 20 0 
1 30 59 0 
1 59 8 0 
1 52 84 0 
1 72 -33 0 
1 89 6 0 
1 54 30 0 
1 102 99 0 
1 -27 -92 0 
1 62 98 0 
1 15 -94 0 
1 -20 -1 0 
1 -105 -53 0 
1 -10 61 0 
1 98 16 0 
1 41 115 0 
1 100 -10 0 
1 12 -77 0 
1 2 46 0 
1 -44 -18 0 
1 -36 -7 0 
1 71 -8 0 
1 -43 -21 0 
1 -88 106 0 
1 -109 -21 0 
1 82 46 0 
1 -46 -48 0 
1 -43 -20 0 
1 93 -39 0 
1 -7 -21 0 
1 -1 91 0 
1 -80 105 0 
1 -8 -35 0 
1 41 -28 0 
1 45 -76 0 
1 28 -9 0 
1 -99 49 0 
1 45 -43 0 
1 -57 -34 0 
1 88 -87 0 
1 -28 113 0 
1 58 108 0 
1 -34 -45 0 
1 -113 -117 0 
1 61 -71 0 
1 104 -19 0 
1 72 31 0 
